c --- [ banner ] -------------------------------------------------------------
c 
c CaDiCaL Radically Simplified CDCL SAT Solver
c Copyright (c) 2016-2021 A. Biere, M. Fleury, N. Froleyks
c 
c Version 1.5.2 a5f15211db36c3956764e18194dd5bd63bf3b5e6
c g++ (GCC) 9.3.0 -Wall -Wextra -O3 -DNDEBUG
c Fri Oct 21 01:27:37 EDT 2022 Linux gra-login3 3.10.0-1160.66.1.el7.x86_64 x86_64
c 
c --- [ limit ] --------------------------------------------------------------
c 
c setting conflict limit to 200000 conflicts (due to '200000')
c 
c --- [ parsing input ] ------------------------------------------------------
c 
c reading DIMACS file from '33.cubes6235.adj'
c opening file to read '33.cubes6235.adj'
c found 'p cnf 6160 1595483' header
c parsed 1595483 clauses in 19.58 seconds process time
c closing file '33.cubes6235.adj'
c after reading 1457566824 bytes 1390.0 MB
c 
c --- [ options ] ------------------------------------------------------------
c 
c all options are set to their default value
c 
c --- [ solving ] ------------------------------------------------------------
c 
c time measured in process time since initialization
c 
c  seconds    reductions  redundant   irredundant
c          MB     restarts       trail       variables
c            level   conflicts       glue         remaining
c 
c * 19.58 1380  0 0   0    0    0  0% 0 1595422 2366 38%
c { 20.36 1419  0 0   0    0    0  0% 0 1595422 2366 38%
c i 22.75 1476 317 0   2   58   52 30% 7 1595422 2359 38%
c i 22.95 1480 293 0   4   64   57 30% 10 1595422 2356 38%
c i 23.08 1483 252 0   6   77   68 29% 15 1595422 2354 38%
c i 23.14 1483 247 0   7   79   69 29% 15 1595422 2353 38%
c i 23.98 1490 194 0  15  113  102 29% 27 1595422 2350 38%
c i 24.12 1491 189 0  18  120  108 29% 26 1595422 2330 38%
c i 25.50 1497 153 0  28  180  156 28% 26 1595422 2324 38%
c - 31.24 1383 122 1  50  303  251 28% 29 160664 2324 38%
c i 31.84 1383 82 1  51  554  455 29% 28 160664 2323 38%
c i 31.86 1383 83 1  51  555  455 29% 28 160664 2322 38%
c i 32.60 1383 80 1  67  702  569 29% 28 160664 2321 38%
c i 33.04 1383 74 1  76  873  708 29% 27 160664 2320 38%
c i 33.38 1383 73 1  83  946  771 29% 28 160664 2319 38%
c i 33.81 1383 73 1  93  999  821 29% 28 160664 2318 38%
c } 33.81 1383 73 1  93 1000  822 29% 28 160664 2318 38%
c [ 33.81 1383  0 1  93 1000  822  0% 0 160664 2318 38%
c O 33.84 1383 70 1  93 1002  824 23% 41 160664 2318 38%
c - 34.36 1467 24 2  93 1028  733 32% 21 160646 2318 38%
c 
c  seconds    reductions  redundant   irredundant
c          MB     restarts       trail       variables
c            level   conflicts       glue         remaining
c 
c i 34.47 1467 23 2  93 1120  803 32% 20 160646 2317 38%
c i 34.55 1467 41 2  93 1285  930 31% 32 160646 2316 38%
c i 34.75 1467 37 2  93 1736 1258 31% 29 160646 2315 38%
c i 34.83 1467 35 2  93 1915 1352 31% 28 160646 2314 38%
c - 35.14 1466 33 3  94 2115 1077 31% 26 160634 2314 38%
c ] 35.63 1466 28 3  94 3003 1536 52% 24 160634 2314 38%
c { 35.63 1466 73 3  94 3003 1536 77% 28 160634 2314 38%
c F 35.64 1466 73 3  94 3004 1537 77% 28 160634 2314 38%
c i 35.80 1466 69 3  94 3068 1588 75% 27 160634 2313 38%
c i 35.94 1466 68 3  98 3151 1658 73% 27 160634 2312 38%
c i 36.12 1466 68 3 106 3181 1681 73% 27 160634 2311 38%
c i 36.69 1466 69 3 124 3258 1749 71% 28 160634 2310 38%
c i 36.85 1466 70 3 127 3270 1760 71% 28 160634 2309 37%
c i 37.19 1466 72 3 140 3325 1799 69% 30 160634 2308 37%
c i 37.19 1466 72 3 140 3328 1801 69% 30 160634 2307 37%
c i 37.28 1466 72 3 144 3344 1815 69% 30 160634 2306 37%
c i 37.42 1466 73 3 156 3390 1854 68% 31 160634 2305 37%
c i 37.75 1466 73 3 176 3486 1935 67% 32 160634 2304 37%
c - 38.48 1384 73 4 199 3562 1457 66% 32 160604 2304 37%
c i 38.56 1384 74 4 201 3575 1469 66% 33 160604 2303 37%
c 
c  seconds    reductions  redundant   irredundant
c          MB     restarts       trail       variables
c            level   conflicts       glue         remaining
c 
c i 38.61 1384 74 4 204 3582 1475 66% 33 160604 2302 37%
c i 38.95 1384 74 4 214 3624 1515 65% 33 160604 2301 37%
c i 39.04 1384 71 4 219 3722 1578 64% 32 160604 2300 37%
c i 39.21 1384 63 4 219 4042 1754 62% 29 160604 2299 37%
c i 39.26 1384 61 4 219 4142 1827 62% 29 160604 2298 37%
c i 39.56 1384 49 4 219 4923 2246 59% 25 160604 2297 37%
c i 39.61 1384 48 4 219 4978 2276 59% 24 160604 2296 37%
c d 39.94 1384 48 4 219 5000 2296 59% 24 160566 2289 37%
c 2 39.98 1384 48 4 219 5000 4000 59% 24 160566 2288 37%
c p 46.63 1384 48 4 219 5000 8762 59% 24 160566 2228 36%
c - 48.22 1385 48 5 266 5372 2042 58% 25 160390 2228 36%
c # 50.89 1385 51 5 377 6006 2583 56% 27 160390 2228 36%
c } 52.38 1385 49 5 443 7004 3300 55% 27 160390 2228 36%
c [ 52.38 1385 28 5 443 7004 3300 52% 24 160390 2228 36%
c - 52.57 1385 28 6 444 7542 2635 52% 24 160390 2228 36%
c I 53.14 1385 25 6 445 10008 4170 52% 22 160390 2228 36%
c - 53.45 1385 26 7 445 10072 2913 52% 23 160390 2228 36%
c - 55.61 1386 38 8 447 12966 3512 51% 31 160390 2228 36%
c p 58.78 1386 41 8 448 15001 11258 51% 34 160390 2228 36%
c d 58.86 1386 41 8 448 15001 11243 51% 34 152220 2227 36%
c 
c  seconds    reductions    redundant   irredundant
c          MB     restarts         trail       variables
c            level    conflicts        glue         remaining
c 
c ] 58.98 1386 41 8 448 15006 11247 51% 34 152220 2227 36%
c { 58.98 1386 49 8 448 15006 11247 55% 27 152220 2227 36%
c B 59.09 1386 49 8 448 15010 11251 55% 27 152220 2227 36%
c - 59.77 1386 43 9 459 16222 4168 55% 26 152220 2227 36%
c s 62.14 1386 39 9 525 18795 5814 53% 25 151251 2227 36%
c v 64.17 1386 39 9 525 18795 5814 53% 25 151238 2227 36%
c w 64.24 1386 39 9 525 18795 5811 53% 25 151238 2227 36%
c t 64.25 1386 39 9 525 18795 5795 53% 25 151234 2227 36%
c e 64.95 1387 39 9 525 18795 5445 53% 25 147864 683 11%
c s 65.03 1387 39 9 525 18795 5445 53% 25 147509 683 11%
c - 66.51 1386 37 10 527 19770 4377 87% 24 147509 683 11%
c W 67.40 1386 35 10 527 21012 5159 86% 23 147509 683 11%
c - 73.27 1386 38 11 830 23627 4996 85% 25 147509 683 11%
c - 76.03 1386 34 12 830 27835 5831 86% 24 147509 683 11%
c F 76.26 1386 34 12 830 28013 5967 86% 24 147509 683 11%
c 2 79.52 1386 34 12 960 30001 7974 86% 24 147508 683 11%
c p 82.70 1386 34 12 960 30001 10513 86% 24 147508 681 11%
c } 83.76 1386 34 12 960 31007 11145 86% 24 147508 681 11%
c [ 83.76 1386 41 12 960 31007 11145 173% 34 147508 681 11%
c - 85.03 1386 40 13 960 32393 5935 161% 32 147502 681 11%
c 
c  seconds    reductions    redundant    irredundant
c          MB      restarts        trail        variables
c            level     conflicts        glue        remaining
c 
c B 88.05 1386 38 13 963 36014 8466 140% 31 147502 681 11%
c - 88.67 1386 38 14 963 37301 6483 136% 31 147502 681 11%
c ] 90.10 1386 36 14 966 40513 8553 126% 30 147502 681 11%
c 1 90.10 1386 36 14 966 40513 8553 126% 30 147502 681 11%
c 
c --- [ writing output ] -----------------------------------------------------
c 
c writing simplified CNF to DIMACS file 'simp/33.cubes6235.adj.simp1'
c * 90.10 1386 36 14 966 40513 8553 126% 30 147502 681 11%
c opening file to write 'simp/33.cubes6235.adj.simp1'
c writing 'p cnf 6160 147502' header
c closing file 'simp/33.cubes6235.adj.simp1'
c after writing 86603444 bytes 82.6 MB
c wrote 147502 clauses in 0.60 seconds process time
c 
c --- [ writing extension ] --------------------------------------------------
c 
c writing extension stack to 'simp/33.cubes6235.adj.ext1'
c opening file to write 'simp/33.cubes6235.adj.ext1'
c closing file 'simp/33.cubes6235.adj.ext1'
c after writing 99727 bytes 0.1 MB
c wrote 4374 witnesses in 0.00 seconds process time
c 
c --- [ result ] -------------------------------------------------------------
c 
s SATISFIABLE
c 
c --- [ run-time profiling ] -------------------------------------------------
c 
c process time taken by individual solving procedures
c (percentage relative to process time for solving)
c 
c        54.43   77.20% search
c        41.09   58.28% unstable
c        19.58   27.77% parse
c        16.08   22.80% simplify
c        12.46   17.67% stable
c        12.00   17.02% probe
c         2.09    2.96% vivify
c         1.30    1.84% elim
c         0.77    1.09% lucky
c         0.14    0.19% subsume
c         0.11    0.16% walk
c         0.07    0.10% ternary
c   =================================
c        70.51   77.74% solve
c 
c last line shows process time for solving
c (percentage relative to total process time)
c 
c --- [ statistics ] ---------------------------------------------------------
c 
c chronological:              6874        16.97 %  of conflicts
c conflicts:                 40513       574.55    per second
c decisions:                115896      1643.63    per second
c eliminated:                 1544        25.06 %  of all variables
c fixed:                       783        12.71 %  of all variables
c learned:                   39675        97.93 %  per conflict
c learned_lits:            8000121       100.00 %  learned literals
c minimized:                     0         0.00 %  learned literals
c shrunken:                5658936        70.74 %  learned literals
c minishrunken:             438055         5.48 %  learned literals
c propagations:            4101630         0.06 M  per second
c reduced:                   19479        48.08 %  per conflict
c rephased:                      8      5064.12    interval
c restarts:                    966        41.94    interval
c stabilizing:                   3        48.16 %  of conflicts
c substituted:                   8         0.13 %  of all variables
c subsumed:                  12783         0.38 %  of all clauses
c strengthened:               1945         0.06 %  of all clauses
c ternary:                    4195         0.84 %  of resolved
c vivified:                     41         0.00 %  of all clauses
c walked:                        1     40513.00    interval
c weakened:                   3591         3.01    average size
c 
c seconds are measured in process time for solving
c 
c --- [ resources ] ----------------------------------------------------------
c 
c total process time since initialization:        90.70    seconds
c total real time since initialization:           91.20    seconds
c maximum resident set size of process:         1549.72    MB
c 
c --- [ shutting down ] ------------------------------------------------------
c 
c exit 10
WARNING! DIMACS header mismatch: wrong number of variables.
============================[ Problem Statistics ]=============================
|                                                                             |
|  Number of variables:          6120                                         |
|  Number of clauses:          147506                                         |
|  Parse time:                   1.14 s                                       |
|  Simplification time:          0.02 s                                       |
|                                                                             |
============================[ Search Statistics ]====================================================
| Conflicts |          ORIGINAL         |          LEARNT          | Num Sols |      SUBGRAPHS      |
|           |    Vars  Clauses Literals |    Limit  Clauses Lit/Cl |          | Canonical Noncanon. |
=====================================================================================================
|       103 |    6029   147509 18230216 |     2000      103    108 |        0 |        20         3 |
|       277 |    6029   147533 18230800 |     2000      277     92 |        0 |        48        27 |
|       505 |    6029   147536 18230854 |     2000      505    109 |        0 |        53        30 |
|       858 |    6029   147552 18231137 |     2000      858    106 |        0 |        84        46 |
|      1434 |    6029   147622 18232113 |     2000     1434    105 |        0 |       113       116 |
|      2324 |    6029   147753 18234551 |     3600     1324     61 |        0 |       154       247 |
|      3497 |    6029   147787 18235518 |     3600     2497     84 |        0 |       176       281 |
|      5395 |    6029   147977 18239083 |     5001     2596     61 |        0 |       234       471 |
|      8477 |    6029   148497 18250033 |     6301     3178     47 |        0 |       445       991 |
|     13358 |    6029   149534 18268555 |     7553     4911     42 |        0 |       872      2028 |
|     19587 |    6029   149997 18279286 |     8784     7371     65 |        0 |      1042      2491 |
|     30359 |    6029   152120 18318285 |    11204     8763     57 |        0 |      1945      4614 |
|     63884 |    6029   172671 18610516 |    17210     8294     13 |        0 |      6258     25165 |
|     86783 |    6029   176109 18670518 |    19608    13391     39 |        0 |      7489     28603 |
|    128036 |    6029   188170 18882014 |    24406    11842     11 |        0 |     10790     40664 |
|    178156 |    6029   194501 18991411 |    28014    23570     50 |        0 |     12500     46995 |
|    249057 |    6029   199718 19088195 |    34017    18474     24 |        0 |     15251     52212 |
|    365072 |    6029   217207 19376901 |    41208    23480     26 |        0 |     20433     69701 |
|    568053 |    6029   272399 20259963 |    50822    44875     47 |        0 |     28960    124893 |
|    826289 |    6029   308952 20721866 |    61614    52903     43 |        0 |     34345    161446 |
|   1237808 |    6022   310425 20748422 |    75991    55199     54 |        2 |     49529    240438 |
|   1767932 |    5987   271697 18664524 |    90293    89625     66 |        3 |     57805    271773 |
=====================================================================================================
Number of solutions   : 3
Canonical subgraphs   : 59152          (28 /sec)
          order  3    : 1              (166667 /sec)
          order  4    : 1              (500000 /sec)
          order  5    : 1              (200000 /sec)
          order  6    : 1              (55556 /sec)
          order  7    : 1              (8696 /sec)
          order  8    : 2              (1362 /sec)
          order  9    : 4              (554 /sec)
          order 10    : 7              (257 /sec)
          order 11    : 22             (165 /sec)
          order 12    : 135            (103 /sec)
          order 13    : 512            (73 /sec)
          order 14    : 6335           (50 /sec)
          order 15    : 34605          (36 /sec)
          order 16    : 10066          (21 /sec)
          order 17    : 4703           (17 /sec)
          order 18    : 2187           (12 /sec)
          order 19    : 447            (12 /sec)
          order 20    : 70             (13 /sec)
          order 21    : 49             (14 /sec)
          order 22    : 3              (1 /sec)
Noncanonical subgraphs: 276781         (206 /sec)
          order  3    : 0              (-nan /sec)
          order  4    : 0              (-nan /sec)
          order  5    : 0              (-nan /sec)
          order  6    : 0              (-nan /sec)
          order  7    : 0              (-nan /sec)
          order  8    : 0              (-nan /sec)
          order  9    : 0              (-nan /sec)
          order 10    : 0              (-nan /sec)
          order 11    : 0              (-nan /sec)
          order 12    : 0              (-nan /sec)
          order 13    : 951            (16586 /sec)
          order 14    : 14642          (2301 /sec)
          order 15    : 37362          (1052 /sec)
          order 16    : 204840         (184 /sec)
          order 17    : 13346          (117 /sec)
          order 18    : 5293           (87 /sec)
          order 19    : 298            (35 /sec)
          order 20    : 1              (22 /sec)
          order 21    : 0              (-nan /sec)
Canonicity checking   : 2101.77 s
Noncanonicity checking: 1340.67 s
Total canonicity time : 3442.45 s
database reductions   : 76
restarts              : 3661
conflicts             : 1894441        (446 /sec)
decisions             : 2643159        (0.00 % random) (622 /sec)
propagations          : 68548267       (16130 /sec)
conflict literals     : 187660200      (56.41 % deleted)
actual reward         : 0.337769
Memory used           : 299.00 MB
CPU time              : 4249.66 s

UNSATISFIABLE
